c Lingeling SAT Solver
c 
c Version azf 92032848c138b2f33629ad24394d60a3787a1046
c 
c Copyright (C) 2010-2014 Armin Biere JKU Linz Austria.
c All rights reserved.
c 
c released Don Mai 22 22:08:00 CEST 2014
c compiled Mon Oct  6 05:55:43 PDT 2014
c 
c gcc (Ubuntu 4.8.2-19ubuntu1) 4.8.2
c -Wall -O3 -DNDBLSCR -DNLGLOG -DNDEBUG -DNCHKSOL -DNLGLPICOSAT -DNLGLDRUPLIG
c -DNLGLYALSAT
c Linux ubuntu 3.13.0-32-generic x86_64
c 
c reading input file benchmark-sat/translations/gc-3-Insertions_3-5.cnf
c no embedded options
c found 'p cnf 280 1166' header
c read 280 variables, 1166 clauses, 2500 literals in 0.00 seconds
c 
c  seconds         irredundant          redundant clauses agility   height
c          variables clauses conflicts large ternary binary    glue         MB
c 
c S    0.0     280     1166         0       0      0     0   0  0.0   0.0    0
c 
c  seconds         irredundant          redundant clauses agility   height
c          variables clauses conflicts large ternary binary    glue         MB
c 
s SATISFIABLE
v 1 -2 -3 -4 -5 -6 -7 -8 9 -10 -11 -12 -13 -14 15 -16 -17 18 -19 -20 -21 -22 -23
v -24 25 -26 -27 -28 29 -30 31 -32 -33 -34 -35 -36 37 -38 -39 -40 -41 -42 -43
v -44 45 -46 -47 -48 -49 50 -51 52 -53 -54 -55 -56 -57 -58 -59 60 -61 -62 -63 64
v -65 -66 -67 68 -69 -70 -71 -72 -73 74 -75 76 -77 -78 -79 -80 -81 -82 -83 84
v -85 -86 87 -88 -89 -90 -91 92 -93 -94 -95 -96 -97 -98 -99 100 -101 -102 -103
v -104 105 -106 107 -108 -109 -110 -111 -112 -113 -114 115 -116 -117 -118 119
v -120 -121 -122 -123 -124 125 -126 -127 128 -129 -130 -131 -132 133 -134 -135
v 136 -137 -138 -139 -140 141 -142 -143 -144 -145 -146 -147 -148 149 -150 -151
v -152 -153 -154 155 -156 -157 -158 159 -160 -161 162 -163 -164 -165 -166 -167
v -168 -169 170 -171 -172 -173 174 -175 -176 -177 178 -179 -180 -181 -182 -183
v 184 -185 -186 -187 -188 -189 190 -191 192 -193 -194 -195 -196 -197 198 -199
v -200 -201 -202 -203 204 -205 206 -207 -208 -209 -210 -211 -212 213 -214 -215
v -216 217 -218 -219 -220 -221 -222 223 -224 -225 226 -227 -228 -229 -230 231
v -232 -233 -234 -235 -236 -237 238 -239 -240 -241 242 -243 -244 -245 -246 247
v -248 -249 -250 -251 -252 -253 254 -255 -256 -257 -258 259 -260 261 -262 -263
v -264 -265 266 -267 -268 -269 -270 -271 272 -273 -274 -275 -276 -277 -278 -279
v 280 0
c
c    0.012  98% simplifying
c    0.000   2% search
c ==================================
c    0.012 100% all
c 
c 111 decisions, 9125.3 decisions/sec
c 0 conflicts, 0.0 conflicts/sec
c 166 propagations, 0.0 megaprops/sec
c 0.0 seconds, 0.2 MB
